[8, 7, 6, 5, 4, 2, 3, 1, 0, 9, 13, 20, 28, 29, 31, 34, 36, 37, 32, 33, 35, 30, 26, 27, 23, 21, 24, 25, 22, 19, 14, 12, 15, 16, 17, 18, 10, 11, 8]


[8, 7, 6, 5, 4, 2, 3, 1, 0, 9, 13, 20, 28, 29, 31, 34, 36, 37, 32, 33, 35, 30, 26, 27, 23, 21, 24, 25, 22, 19, 14, 12, 15, 16, 17, 18, 10, 11, 8]


[15, 16, 17, 18, 10, 11, 8, 7, 6, 5, 4, 2, 3, 1, 0, 9, 13, 20, 28, 29, 31, 34, 36, 37, 32, 33, 35, 30, 26, 27, 23, 21, 24, 25, 22, 19, 14, 12, 15]


[8, 7, 6, 5, 4, 2, 3, 1, 0, 9, 13, 20, 28, 29, 31, 34, 36, 37, 32, 33, 35, 30, 26, 27, 23, 21, 24, 25, 22, 19, 14, 12, 15, 16, 17, 18, 10, 11, 8]


[37, 36, 34, 31, 29, 28, 20, 13, 9, 0, 1, 3, 2, 4, 5, 6, 7, 8, 11, 10, 16, 17, 18, 15, 12, 14, 19, 22, 24, 25, 21, 23, 27, 26, 30, 35, 33, 32, 37]


